p cnf 23 77
-1 0 
-2 0
3 0
4 0
5 0
6 0
7 0
8 0
9 0
-10 0
-11 9 0
-11 6 0
-11 4 0
-11 7 0
-11 10 0
-12 5 0
-12 6 0
-12 4 0
-12 7 0
-12 10 0
-12 3 0
-13 8 0
-13 10 0
-13 6 0
-13 5 0
-13 7 0
-13 4 0
-13 9 0
-13 3 0
-14 10 0
-14 7 0
-14 5 0
-14 8 0
-14 3 0
-15 7 0
-15 3 0
-15 5 0
-15 8 0
-15 10 0
-15 9 0
-15 4 0
-1 4 0
-1 3 0
-2 3 0
-2 4 0
-2 5 0
-2 8 0
-2 7 0
-2 6 0
-3 12 13 14 15 1 2 0
-4 11 12 13 15 1 2 0
-5 12 13 14 15 2 0
-6 11 12 13 2 0
-10 11 12 13 14 15 0 
-7 11 12 13 14 15 2 0
-8 13 14 15 2 0
-9 11 13 15 0
12 -11 16 0
-12 11 16 0
-12 -11 17 0
-17 0
11 12 -13 18 0
11 -12 13 18 0
-11 12 13 18 0
-11 -12 -13 18 0
-11 -12 19 0
-11 -13 19 0
-12 -13 19 0
-18 -19 0
13 -12 20 0
-13 12 20 0
-13 -12 21 0
-21 0
12 -11 22 0
-12 11 22 0
-12 -11 23 0
-23 0
